Total weight: 1306.0
Route 1: 0 2 6 7 8 46 4 45 5 3 1 0 
Route 2: 0 82 10 11 53 98 69 0 
Route 3: 0 12 47 17 16 15 87 86 52 0 
Route 4: 0 83 22 48 21 23 25 24 0 
Route 5: 0 67 34 31 29 27 26 28 30 32 33 50 0 
Route 6: 0 41 38 44 43 40 36 35 37 39 42 0 
Route 7: 0 80 94 96 81 0 
Route 8: 0 68 61 70 100 0 
Route 9: 0 54 72 71 93 79 73 0 
Route 10: 0 90 66 64 51 76 89 18 19 49 20 0 
Route 11: 0 55 88 60 78 14 13 9 99 0 
Route 12: 0 91 92 95 62 63 85 84 56 0 
Route 13: 0 65 57 74 58 59 97 75 77 0 
